p edge 64 1312
p 1 2
p 1 3
p 1 4
p 1 5
p 1 6
p 1 7
p 1 8
p 1 9
p 1 10
p 1 11
p 1 12
p 1 13
p 1 14
p 1 15
p 1 17
p 1 18
p 1 19
p 1 20
p 1 21
p 1 22
p 1 23
p 1 25
p 1 26
p 1 27
p 1 29
p 1 33
p 1 34
p 1 35
p 1 36
p 1 37
p 1 38
p 1 39
p 1 41
p 1 42
p 1 43
p 1 45
p 1 49
p 1 50
p 1 51
p 1 53
p 1 57
p 2 3
p 2 4
p 2 5
p 2 6
p 2 7
p 2 8
p 2 9
p 2 10
p 2 11
p 2 12
p 2 13
p 2 14
p 2 16
p 2 17
p 2 18
p 2 19
p 2 20
p 2 21
p 2 22
p 2 24
p 2 25
p 2 26
p 2 28
p 2 30
p 2 33
p 2 34
p 2 35
p 2 36
p 2 37
p 2 38
p 2 40
p 2 41
p 2 42
p 2 44
p 2 46
p 2 49
p 2 50
p 2 52
p 2 54
p 2 58
p 3 4
p 3 5
p 3 6
p 3 7
p 3 8
p 3 9
p 3 10
p 3 11
p 3 12
p 3 13
p 3 15
p 3 16
p 3 17
p 3 18
p 3 19
p 3 20
p 3 21
p 3 23
p 3 24
p 3 25
p 3 27
p 3 28
p 3 31
p 3 33
p 3 34
p 3 35
p 3 36
p 3 37
p 3 39
p 3 40
p 3 41
p 3 43
p 3 44
p 3 47
p 3 49
p 3 51
p 3 52
p 3 55
p 3 59
p 4 5
p 4 6
p 4 7
p 4 8
p 4 9
p 4 10
p 4 11
p 4 12
p 4 14
p 4 15
p 4 16
p 4 17
p 4 18
p 4 19
p 4 20
p 4 22
p 4 23
p 4 24
p 4 26
p 4 27
p 4 28
p 4 32
p 4 33
p 4 34
p 4 35
p 4 36
p 4 38
p 4 39
p 4 40
p 4 42
p 4 43
p 4 44
p 4 48
p 4 50
p 4 51
p 4 52
p 4 56
p 4 60
p 5 6
p 5 7
p 5 8
p 5 9
p 5 10
p 5 11
p 5 13
p 5 14
p 5 15
p 5 16
p 5 17
p 5 18
p 5 19
p 5 21
p 5 22
p 5 23
p 5 24
p 5 25
p 5 29
p 5 30
p 5 31
p 5 33
p 5 34
p 5 35
p 5 37
p 5 38
p 5 39
p 5 40
p 5 41
p 5 45
p 5 46
p 5 47
p 5 49
p 5 53
p 5 54
p 5 55
p 5 61
p 6 7
p 6 8
p 6 9
p 6 10
p 6 12
p 6 13
p 6 14
p 6 15
p 6 16
p 6 17
p 6 18
p 6 20
p 6 21
p 6 22
p 6 23
p 6 24
p 6 26
p 6 29
p 6 30
p 6 32
p 6 33
p 6 34
p 6 36
p 6 37
p 6 38
p 6 39
p 6 40
p 6 42
p 6 45
p 6 46
p 6 48
p 6 50
p 6 53
p 6 54
p 6 56
p 6 62
p 7 8
p 7 9
p 7 11
p 7 12
p 7 13
p 7 14
p 7 15
p 7 16
p 7 17
p 7 19
p 7 20
p 7 21
p 7 22
p 7 23
p 7 24
p 7 27
p 7 29
p 7 31
p 7 32
p 7 33
p 7 35
p 7 36
p 7 37
p 7 38
p 7 39
p 7 40
p 7 43
p 7 45
p 7 47
p 7 48
p 7 51
p 7 53
p 7 55
p 7 56
p 7 63
p 8 10
p 8 11
p 8 12
p 8 13
p 8 14
p 8 15
p 8 16
p 8 18
p 8 19
p 8 20
p 8 21
p 8 22
p 8 23
p 8 24
p 8 28
p 8 30
p 8 31
p 8 32
p 8 34
p 8 35
p 8 36
p 8 37
p 8 38
p 8 39
p 8 40
p 8 44
p 8 46
p 8 47
p 8 48
p 8 52
p 8 54
p 8 55
p 8 56
p 8 64
p 9 10
p 9 11
p 9 12
p 9 13
p 9 14
p 9 15
p 9 16
p 9 17
p 9 18
p 9 19
p 9 21
p 9 25
p 9 26
p 9 27
p 9 28
p 9 29
p 9 30
p 9 31
p 9 33
p 9 34
p 9 35
p 9 37
p 9 41
p 9 42
p 9 43
p 9 44
p 9 45
p 9 46
p 9 47
p 9 49
p 9 57
p 9 58
p 9 59
p 9 61
p 10 11
p 10 12
p 10 13
p 10 14
p 10 15
p 10 16
p 10 17
p 10 18
p 10 20
p 10 22
p 10 25
p 10 26
p 10 27
p 10 28
p 10 29
p 10 30
p 10 32
p 10 33
p 10 34
p 10 36
p 10 38
p 10 41
p 10 42
p 10 43
p 10 44
p 10 45
p 10 46
p 10 48
p 10 50
p 10 57
p 10 58
p 10 60
p 10 62
p 11 12
p 11 13
p 11 14
p 11 15
p 11 16
p 11 17
p 11 19
p 11 20
p 11 23
p 11 25
p 11 26
p 11 27
p 11 28
p 11 29
p 11 31
p 11 32
p 11 33
p 11 35
p 11 36
p 11 39
p 11 41
p 11 42
p 11 43
p 11 44
p 11 45
p 11 47
p 11 48
p 11 51
p 11 57
p 11 59
p 11 60
p 11 63
p 12 13
p 12 14
p 12 15
p 12 16
p 12 18
p 12 19
p 12 20
p 12 24
p 12 25
p 12 26
p 12 27
p 12 28
p 12 30
p 12 31
p 12 32
p 12 34
p 12 35
p 12 36
p 12 40
p 12 41
p 12 42
p 12 43
p 12 44
p 12 46
p 12 47
p 12 48
p 12 52
p 12 58
p 12 59
p 12 60
p 12 64
p 13 14
p 13 15
p 13 16
p 13 17
p 13 21
p 13 22
p 13 23
p 13 25
p 13 26
p 13 27
p 13 29
p 13 30
p 13 31
p 13 32
p 13 33
p 13 37
p 13 38
p 13 39
p 13 41
p 13 42
p 13 43
p 13 45
p 13 46
p 13 47
p 13 48
p 13 53
p 13 57
p 13 61
p 13 62
p 13 63
p 14 15
p 14 16
p 14 18
p 14 21
p 14 22
p 14 24
p 14 25
p 14 26
p 14 28
p 14 29
p 14 30
p 14 31
p 14 32
p 14 34
p 14 37
p 14 38
p 14 40
p 14 41
p 14 42
p 14 44
p 14 45
p 14 46
p 14 47
p 14 48
p 14 54
p 14 58
p 14 61
p 14 62
p 14 64
p 15 16
p 15 19
p 15 21
p 15 23
p 15 24
p 15 25
p 15 27
p 15 28
p 15 29
p 15 30
p 15 31
p 15 32
p 15 35
p 15 37
p 15 39
p 15 40
p 15 41
p 15 43
p 15 44
p 15 45
p 15 46
p 15 47
p 15 48
p 15 55
p 15 59
p 15 61
p 15 63
p 15 64
p 16 20
p 16 22
p 16 23
p 16 24
p 16 26
p 16 27
p 16 28
p 16 29
p 16 30
p 16 31
p 16 32
p 16 36
p 16 38
p 16 39
p 16 40
p 16 42
p 16 43
p 16 44
p 16 45
p 16 46
p 16 47
p 16 48
p 16 56
p 16 60
p 16 62
p 16 63
p 16 64
p 17 18
p 17 19
p 17 20
p 17 21
p 17 22
p 17 23
p 17 24
p 17 25
p 17 26
p 17 27
p 17 28
p 17 29
p 17 30
p 17 31
p 17 33
p 17 34
p 17 35
p 17 37
p 17 41
p 17 49
p 17 50
p 17 51
p 17 52
p 17 53
p 17 54
p 17 55
p 17 57
p 17 58
p 17 59
p 17 61
p 18 19
p 18 20
p 18 21
p 18 22
p 18 23
p 18 24
p 18 25
p 18 26
p 18 27
p 18 28
p 18 29
p 18 30
p 18 32
p 18 33
p 18 34
p 18 36
p 18 38
p 18 42
p 18 49
p 18 50
p 18 51
p 18 52
p 18 53
p 18 54
p 18 56
p 18 57
p 18 58
p 18 60
p 18 62
p 19 20
p 19 21
p 19 22
p 19 23
p 19 24
p 19 25
p 19 26
p 19 27
p 19 28
p 19 29
p 19 31
p 19 32
p 19 33
p 19 35
p 19 36
p 19 39
p 19 43
p 19 49
p 19 50
p 19 51
p 19 52
p 19 53
p 19 55
p 19 56
p 19 57
p 19 59
p 19 60
p 19 63
p 20 21
p 20 22
p 20 23
p 20 24
p 20 25
p 20 26
p 20 27
p 20 28
p 20 30
p 20 31
p 20 32
p 20 34
p 20 35
p 20 36
p 20 40
p 20 44
p 20 49
p 20 50
p 20 51
p 20 52
p 20 54
p 20 55
p 20 56
p 20 58
p 20 59
p 20 60
p 20 64
p 21 22
p 21 23
p 21 24
p 21 25
p 21 26
p 21 27
p 21 29
p 21 30
p 21 31
p 21 32
p 21 33
p 21 37
p 21 38
p 21 39
p 21 45
p 21 49
p 21 50
p 21 51
p 21 53
p 21 54
p 21 55
p 21 56
p 21 57
p 21 61
p 21 62
p 21 63
p 22 23
p 22 24
p 22 25
p 22 26
p 22 28
p 22 29
p 22 30
p 22 31
p 22 32
p 22 34
p 22 37
p 22 38
p 22 40
p 22 46
p 22 49
p 22 50
p 22 52
p 22 53
p 22 54
p 22 55
p 22 56
p 22 58
p 22 61
p 22 62
p 22 64
p 23 24
p 23 25
p 23 27
p 23 28
p 23 29
p 23 30
p 23 31
p 23 32
p 23 35
p 23 37
p 23 39
p 23 40
p 23 47
p 23 49
p 23 51
p 23 52
p 23 53
p 23 54
p 23 55
p 23 56
p 23 59
p 23 61
p 23 63
p 23 64
p 24 26
p 24 27
p 24 28
p 24 29
p 24 30
p 24 31
p 24 32
p 24 36
p 24 38
p 24 39
p 24 40
p 24 48
p 24 50
p 24 51
p 24 52
p 24 53
p 24 54
p 24 55
p 24 56
p 24 60
p 24 62
p 24 63
p 24 64
p 25 26
p 25 27
p 25 28
p 25 29
p 25 30
p 25 31
p 25 32
p 25 33
p 25 41
p 25 42
p 25 43
p 25 45
p 25 49
p 25 50
p 25 51
p 25 53
p 25 57
p 25 58
p 25 59
p 25 60
p 25 61
p 25 62
p 25 63
p 26 27
p 26 28
p 26 29
p 26 30
p 26 31
p 26 32
p 26 34
p 26 41
p 26 42
p 26 44
p 26 46
p 26 49
p 26 50
p 26 52
p 26 54
p 26 57
p 26 58
p 26 59
p 26 60
p 26 61
p 26 62
p 26 64
p 27 28
p 27 29
p 27 30
p 27 31
p 27 32
p 27 35
p 27 41
p 27 43
p 27 44
p 27 47
p 27 49
p 27 51
p 27 52
p 27 55
p 27 57
p 27 58
p 27 59
p 27 60
p 27 61
p 27 63
p 27 64
p 28 29
p 28 30
p 28 31
p 28 32
p 28 36
p 28 42
p 28 43
p 28 44
p 28 48
p 28 50
p 28 51
p 28 52
p 28 56
p 28 57
p 28 58
p 28 59
p 28 60
p 28 62
p 28 63
p 28 64
p 29 30
p 29 31
p 29 32
p 29 37
p 29 41
p 29 45
p 29 46
p 29 47
p 29 49
p 29 53
p 29 54
p 29 55
p 29 57
p 29 58
p 29 59
p 29 61
p 29 62
p 29 63
p 29 64
p 30 31
p 30 32
p 30 38
p 30 42
p 30 45
p 30 46
p 30 48
p 30 50
p 30 53
p 30 54
p 30 56
p 30 57
p 30 58
p 30 60
p 30 61
p 30 62
p 30 63
p 30 64
p 31 32
p 31 39
p 31 43
p 31 45
p 31 47
p 31 48
p 31 51
p 31 53
p 31 55
p 31 56
p 31 57
p 31 59
p 31 60
p 31 61
p 31 62
p 31 63
p 31 64
p 32 40
p 32 44
p 32 46
p 32 47
p 32 48
p 32 52
p 32 54
p 32 55
p 32 56
p 32 58
p 32 59
p 32 60
p 32 61
p 32 62
p 32 63
p 32 64
p 33 34
p 33 35
p 33 36
p 33 37
p 33 38
p 33 39
p 33 40
p 33 41
p 33 42
p 33 43
p 33 44
p 33 45
p 33 46
p 33 47
p 33 49
p 33 50
p 33 51
p 33 52
p 33 53
p 33 54
p 33 55
p 33 57
p 33 58
p 33 59
p 33 61
p 34 35
p 34 36
p 34 37
p 34 38
p 34 39
p 34 40
p 34 41
p 34 42
p 34 43
p 34 44
p 34 45
p 34 46
p 34 48
p 34 49
p 34 50
p 34 51
p 34 52
p 34 53
p 34 54
p 34 56
p 34 57
p 34 58
p 34 60
p 34 62
p 35 36
p 35 37
p 35 38
p 35 39
p 35 40
p 35 41
p 35 42
p 35 43
p 35 44
p 35 45
p 35 47
p 35 48
p 35 49
p 35 50
p 35 51
p 35 52
p 35 53
p 35 55
p 35 56
p 35 57
p 35 59
p 35 60
p 35 63
p 36 37
p 36 38
p 36 39
p 36 40
p 36 41
p 36 42
p 36 43
p 36 44
p 36 46
p 36 47
p 36 48
p 36 49
p 36 50
p 36 51
p 36 52
p 36 54
p 36 55
p 36 56
p 36 58
p 36 59
p 36 60
p 36 64
p 37 38
p 37 39
p 37 40
p 37 41
p 37 42
p 37 43
p 37 45
p 37 46
p 37 47
p 37 48
p 37 49
p 37 50
p 37 51
p 37 53
p 37 54
p 37 55
p 37 56
p 37 57
p 37 61
p 37 62
p 37 63
p 38 39
p 38 40
p 38 41
p 38 42
p 38 44
p 38 45
p 38 46
p 38 47
p 38 48
p 38 49
p 38 50
p 38 52
p 38 53
p 38 54
p 38 55
p 38 56
p 38 58
p 38 61
p 38 62
p 38 64
p 39 40
p 39 41
p 39 43
p 39 44
p 39 45
p 39 46
p 39 47
p 39 48
p 39 49
p 39 51
p 39 52
p 39 53
p 39 54
p 39 55
p 39 56
p 39 59
p 39 61
p 39 63
p 39 64
p 40 42
p 40 43
p 40 44
p 40 45
p 40 46
p 40 47
p 40 48
p 40 50
p 40 51
p 40 52
p 40 53
p 40 54
p 40 55
p 40 56
p 40 60
p 40 62
p 40 63
p 40 64
p 41 42
p 41 43
p 41 44
p 41 45
p 41 46
p 41 47
p 41 48
p 41 49
p 41 50
p 41 51
p 41 53
p 41 57
p 41 58
p 41 59
p 41 60
p 41 61
p 41 62
p 41 63
p 42 43
p 42 44
p 42 45
p 42 46
p 42 47
p 42 48
p 42 49
p 42 50
p 42 52
p 42 54
p 42 57
p 42 58
p 42 59
p 42 60
p 42 61
p 42 62
p 42 64
p 43 44
p 43 45
p 43 46
p 43 47
p 43 48
p 43 49
p 43 51
p 43 52
p 43 55
p 43 57
p 43 58
p 43 59
p 43 60
p 43 61
p 43 63
p 43 64
p 44 45
p 44 46
p 44 47
p 44 48
p 44 50
p 44 51
p 44 52
p 44 56
p 44 57
p 44 58
p 44 59
p 44 60
p 44 62
p 44 63
p 44 64
p 45 46
p 45 47
p 45 48
p 45 49
p 45 53
p 45 54
p 45 55
p 45 57
p 45 58
p 45 59
p 45 61
p 45 62
p 45 63
p 45 64
p 46 47
p 46 48
p 46 50
p 46 53
p 46 54
p 46 56
p 46 57
p 46 58
p 46 60
p 46 61
p 46 62
p 46 63
p 46 64
p 47 48
p 47 51
p 47 53
p 47 55
p 47 56
p 47 57
p 47 59
p 47 60
p 47 61
p 47 62
p 47 63
p 47 64
p 48 52
p 48 54
p 48 55
p 48 56
p 48 58
p 48 59
p 48 60
p 48 61
p 48 62
p 48 63
p 48 64
p 49 50
p 49 51
p 49 52
p 49 53
p 49 54
p 49 55
p 49 56
p 49 57
p 49 58
p 49 59
p 49 60
p 49 61
p 49 62
p 49 63
p 50 51
p 50 52
p 50 53
p 50 54
p 50 55
p 50 56
p 50 57
p 50 58
p 50 59
p 50 60
p 50 61
p 50 62
p 50 64
p 51 52
p 51 53
p 51 54
p 51 55
p 51 56
p 51 57
p 51 58
p 51 59
p 51 60
p 51 61
p 51 63
p 51 64
p 52 53
p 52 54
p 52 55
p 52 56
p 52 57
p 52 58
p 52 59
p 52 60
p 52 62
p 52 63
p 52 64
p 53 54
p 53 55
p 53 56
p 53 57
p 53 58
p 53 59
p 53 61
p 53 62
p 53 63
p 53 64
p 54 55
p 54 56
p 54 57
p 54 58
p 54 60
p 54 61
p 54 62
p 54 63
p 54 64
p 55 56
p 55 57
p 55 59
p 55 60
p 55 61
p 55 62
p 55 63
p 55 64
p 56 58
p 56 59
p 56 60
p 56 61
p 56 62
p 56 63
p 56 64
p 57 58
p 57 59
p 57 60
p 57 61
p 57 62
p 57 63
p 57 64
p 58 59
p 58 60
p 58 61
p 58 62
p 58 63
p 58 64
p 59 60
p 59 61
p 59 62
p 59 63
p 59 64
p 60 61
p 60 62
p 60 63
p 60 64
p 61 62
p 61 63
p 61 64
p 62 63
p 62 64
p 63 64
